<number of tasks>
50

<cycle time>
1000

<order strength>
0.596


<task times>
1 26
2 278
3 372
4 156
5 166
6 207
7 500
8 187
9 172
10 419
11 45
12 286
13 110
14 74
15 202
16 231
17 61
18 280
19 235
20 224
21 453
22 174
23 145
24 200
25 516
26 255
27 406
28 162
29 80
30 71
31 227
32 82
33 240
34 404
35 59
36 60
37 34
38 180
39 165
40 443
41 256
42 44
43 535
44 90
45 521
46 329
47 29
48 169
49 173
50 532

<precedence relations>
1,9
1,12
2,7
2,9
3,12
4,7
4,8
4,12
5,7
5,8
5,10
5,15
6,8
6,11
7,13
7,26
8,21
8,28
9,13
9,14
9,17
10,18
10,20
11,14
11,15
11,24
12,13
12,21
13,16
13,18
13,20
14,19
14,20
14,21
15,17
15,27
16,22
16,24
17,34
18,24
18,42
19,22
20,25
20,44
21,23
21,26
21,33
22,29
24,28
24,40
24,45
25,27
25,50
26,36
27,30
27,31
27,41
27,49
28,32
29,32
29,33
29,34
30,37
30,48
31,47
32,35
32,41
32,48
33,36
34,38
36,39
36,42
38,39
38,40
38,41
38,42
39,43
39,44
39,45
40,43
42,44
43,49
43,50
44,46
45,47
45,48

<end>
